NAME: random96
TYPE: TSP
DIMENSION: 96
EDGE_WEIGHT_TYPE: EXPLICIT
EDGE_WEIGHT_FORMAT: FULL_MATRIX
EDGE_WEIGHT_SECTION
0 60 1270 37 1270 1270 1270 1270 54 53 44 1270 1270 32 8 1270 1270 1270 1270 1270 30 1270 1270 1270 1270 1270 5 65 1270 1270 22 1270 8 1270 8 27 17 1270 1270 14 19 1270 1270 1270 1270 1270 6 62 1270 23 1270 72 1270 1270 1270 22 1270 1270 1270 24 1270 1270 52 1270 35 13 30 1270 21 80 25 1270 34 1270 1270 40 12 80 1270 1270 1270 28 1270 1270 1270 1270 1270 42 1270 34 1270 1270 1270 1270 40 26
60 0 1270 1270 1270 1270 1270 1270 1270 9 17 24 1270 28 64 1270 1270 27 1270 1270 1270 1270 22 59 1270 18 1270 10 1270 1270 1270 1270 63 1270 1270 1270 1270 1270 1270 46 1270 1270 1270 1270 1270 1270 1270 8 1270 1270 1270 14 1270 1270 72 1270 1270 1270 1270 1270 1270 1270 12 1270 26 1270 1270 1270 1270 1270 1270 1270 1270 1270 1270 20 1270 25 1270 33 17 1270 1270 1270 34 22 1270 1270 1270 1270 1270 33 1270 1270 22 1270
1270 1270 0 1270 16 1270 27 1270 1270 1270 1270 1270 17 1270 1270 1270 1270 1270 20 26 1270 1270 1270 34 1270 1270 1270 1270 1270 1270 1270 15 1270 34 1270 1270 1270 22 67 1270 1270 43 1270 25 1270 1270 1270 1270 46 1270 18 1270 34 31 27 1270 39 13 1270 1270 39 32 1270 21 1270 1270 1270 34 1270 1270 1270 23 1270 1270 41 1270 1270 1270 21 1270 1270 1270 30 28 1270 1270 1270 1270 22 1270 28 1270 39 6 1270 1270
37 1270 1270 0 1270 1270 1270 47 17 1270 1270 1270 1270 1270 43 38 20 1270 1270 1270 11 1270 1270 1270 1270 1270 1270 1270 35 1270 26 1270 44 1270 32 38 20 1270 54 1270 19 1270 34 1270 49 31 1270 1270 1270 14 1270 1270 1270 1270 1270 17 39 1270 35 1270 1270 1270 1270 1270 1270 24 9 1270 1270 43 28 1270 26 1270 39 1270 25 1270 1270 1270 1270 1270 1270 1270 1270 1270 1270 14 1270 5 1270 1270 1270 1270 1270 1270
1270 1270 16 1270 0 1270 27 29 65 1270 1270 1270 26 1270 1270 1270 1270 1270 35 18 82 1270 1270 1270 1270 1270 1270 1270 1270 1270 1270 21 1270 25 1270 1270 1270 1270 53 1270 1270 1270 40 38 31 1270 1270 1270 1270 1270 29 1270 28 20 42 1270 1270 3 1270 1270 1270 20 1270 29 1270 1270 1270 1270 1270 56 1270 38 1270 1270 1270 1270 1270 1270 6 1270 1270 1270 1270 1270 1270 1270 1270 1270 37 1270 1270 1270 26 20 1270 1270
1270 1270 1270 1270 1270 0 18 15 31 1270 1270 1270 1270 1270 1270 1270 16 1270 1270 17 1270 3 1270 1270 1270 1270 1270 1270 3 7 1270 30 1270 12 1270 1270 1270 1270 1270 1270 1270 1270 9 1270 20 7 1270 1270 1270 1270 1270 1270 8 17 1270 1270 16 35 6 1270 10 19 1270 33 1270 1270 1270 1270 1270 34 1270 1270 30 2 22 1270 1270 1270 30 1270 1270 1270 1270 1270 1270 1270 1270 23 1270 1270 1270 1270 1270 1270 1270 1270
1270 1270 27 1270 27 18 0 26 48 1270 1270 1270 44 1270 1270 26 29 1270 31 14 1270 19 1270 1270 40 1270 1270 1270 21 19 46 13 1270 19 1270 44 1270 30 54 1270 1270 29 27 1270 1270 19 1270 1270 25 1270 1270 1270 14 21 1270 49 12 26 24 1270 12 23 1270 15 1270 1270 1270 40 1270 1270 43 1270 33 19 16 1270 1270 1270 26 40 1270 1270 26 1270 1270 1270 27 36 39 1270 40 34 29 33 1270 1270
1270 1270 1270 47 29 15 26 0 37 1270 1270 1270 55 1270 1270 1270 30 1270 1270 15 58 12 1270 1270 1270 1270 1270 1270 13 9 1270 34 1270 7 1270 1270 1270 1270 29 1270 1270 1270 13 1270 6 22 1270 1270 1270 1270 1270 1270 13 9 1270 1270 30 30 12 1270 24 9 1270 1270 1270 1270 1270 1270 1270 28 1270 1270 45 13 36 1270 1270 1270 23 1270 1270 1270 1270 1270 1270 1270 1270 36 1270 1270 1270 1270 5 1270 1270 1270
54 1270 1270 17 65 31 48 37 0 1270 1270 1270 89 1270 61 46 22 1270 1270 1270 27 32 1270 1270 1270 1270 1270 1270 29 35 41 1270 61 40 49 52 37 1270 37 1270 36 1270 25 1270 37 30 1270 1270 53 31 1270 1270 1270 1270 1270 34 41 1270 28 1270 37 45 1270 63 1270 41 25 1270 1270 26 42 1270 37 31 44 1270 42 1270 59 1270 1270 1270 1270 1270 1270 1270 1270 20 1270 21 1270 1270 41 1270 1270 1270
53 9 1270 1270 1270 1270 1270 1270 1270 0 14 15 1270 22 58 1270 1270 23 1270 1270 1270 1270 16 1270 1270 20 1270 18 1270 1270 1270 1270 57 1270 1270 34 1270 1270 1270 40 1270 1270 1270 1270 1270 1270 1270 15 1270 1270 1270 19 1270 1270 1270 1270 1270 1270 1270 1270 1270 1270 13 1270 19 1270 1270 1270 1270 1270 1270 1270 1270 1270 1270 14 1270 28 1270 29 12 29 1270 1270 32 14 35 1270 1270 1270 1270 26 1270 1270 17 31
44 17 1270 1270 1270 1270 1270 1270 1270 14 0 22 1270 13 47 1270 1270 37 1270 1270 1270 1270 29 1270 1270 34 1270 21 1270 1270 1270 1270 46 1270 1270 1270 1270 1270 1270 30 1270 1270 1270 1270 1270 1270 40 18 1270 1270 1270 31 1270 1270 1270 1270 1270 1270 1270 32 1270 1270 8 1270 14 1270 1270 1270 36 1270 1270 1270 1270 1270 1270 6 1270 42 1270 1270 25 26 1270 1270 1270 21 1270 1270 1270 1270 1270 1270 1270 1270 5 28
1270 24 1270 1270 1270 1270 1270 1270 1270 15 22 0 1270 21 1270 26 50 21 1270 1270 1270 1270 11 1270 40 29 1270 1270 1270 1270 34 1270 1270 1270 40 21 1270 1270 1270 33 1270 20 1270 1270 1270 1270 40 1270 22 1270 1270 30 1270 1270 1270 44 1270 1270 1270 24 1270 1270 25 43 15 1270 1270 1270 28 1270 31 1270 33 1270 33 18 1270 35 1270 24 12 19 34 1270 31 1 20 50 1270 1270 1270 15 1270 1270 22 21
1270 1270 17 1270 26 1270 44 55 89 1270 1270 1270 0 1270 1270 1270 1270 1270 28 42 103 1270 1270 36 1270 1270 1270 1270 1270 1270 1270 31 1270 50 1270 1270 1270 30 79 1270 1270 1270 64 13 58 1270 1270 1270 1270 1270 4 1270 51 45 23 1270 1270 25 1270 1270 1270 46 1270 36 1270 1270 1270 1270 1270 82 1270 22 1270 1270 1270 1270 1270 73 33 1270 1270 1270 1270 30 1270 1270 1270 1270 23 1270 32 1270 53 11 1270 1270
32 28 1270 1270 1270 1270 1270 1270 1270 22 13 21 1270 0 36 37 1270 1270 1270 1270 1270 1270 31 1270 1270 1270 32 33 1270 1270 31 1270 35 1270 29 21 1270 1270 1270 18 1270 1270 1270 1270 1270 1270 27 30 1270 1270 1270 1270 1270 1270 1270 1270 1270 1270 1270 20 1270 1270 21 1270 6 40 1270 1270 24 1270 30 1270 38 1270 1270 9 39 1270 1270 1270 30 15 1270 1270 1270 20 36 1270 1270 1270 1270 35 1270 1270 8 16
8 64 1270 43 1270 1270 1270 1270 61 58 47 1270 1270 36 0 1270 55 1270 1270 1270 35 1270 1270 1270 1270 1270 13 67 1270 1270 1270 1270 1 1270 16 1270 23 1270 97 19 25 1270 73 1270 89 1270 14 65 1270 29 1270 77 1270 1270 1270 30 1270 1270 1270 31 1270 1270 55 1270 1270 19 36 1270 29 86 1270 1270 1270 1270 1270 44 19 85 1270 1270 1270 1270 1270 1270 1270 1270 1270 50 1270 41 1270 1270 1270 1270 43 33
1270 1270 1270 38 1270 1270 26 1270 46 1270 1270 26 1270 37 1270 0 25 36 45 38 1270 1270 31 1270 1270 1270 1270 1270 1270 1270 23 35 1270 1270 36 19 38 42 1270 37 1270 20 37 1270 1270 24 38 1270 8 39 1270 1270 33 1270 1270 29 16 1270 1270 22 21 1270 1270 30 32 1270 1270 1270 23 1270 19 1270 13 1270 10 1270 39 1270 1270 34 1270 23 31 1270 1270 27 9 27 1270 34 1270 22 1270 1270 1270 23
1270 1270 1270 20 1270 16 29 30 22 1270 1270 50 1270 1270 55 25 0 1270 59 33 31 19 1270 1270 1270 1270 1270 1270 17 23 28 42 1270 28 41 35 34 58 46 1270 35 43 18 1270 33 11 1270 1270 32 30 1270 1270 24 1270 1270 26 20 1270 18 36 17 35 1270 43 1270 1270 28 1270 34 38 27 1270 18 18 22 1270 37 1270 1270 1270 1270 41 49 1270 1270 1270 33 7 1270 18 1270 1270 35 1270 1270 40
1270 27 1270 1270 1270 1270 1270 1270 1270 23 37 21 1270 1270 1270 36 1270 0 1270 1270 1270 1270 10 33 22 17 1270 36 1270 1270 1270 1270 72 1270 1270 41 1270 33 1270 1270 1270 18 1270 58 1270 1270 1270 34 29 1270 1270 22 1270 1270 46 1270 1270 1270 1270 1270 1270 1270 36 36 35 1270 1270 24 1270 1270 1270 43 1270 1270 1270 35 1270 19 1270 7 12 39 24 35 10 21 28 1270 1270 1270 33 15 1270 1270 1270 1270
1270 1270 20 1270 35 1270 31 1270 1270 1270 1270 1270 28 1270 1270 45 59 1270 0 39 1270 1270 1270 15 16 1270 1270 1270 1270 1270 1270 20 1270 47 1270 1270 1270 3 82 1270 1270 31 1270 25 1270 1270 1270 1270 38 1270 26 1270 44 45 17 1270 40 32 1270 1270 43 1270 1270 17 1270 1270 1270 14 1270 1270 1270 11 57 1270 39 1270 1270 47 39 29 1270 1270 15 10 30 1270 39 1270 8 1270 9 35 1270 20 1270 1270
1270 1270 26 1270 18 17 14 15 1270 1270 1270 1270 42 1270 1270 38 33 1270 39 0 1270 15 1270 1270 1270 1270 1270 1270 18 12 1270 19 1270 8 1270 1270 1270 39 43 1270 1270 43 22 51 20 22 1270 1270 39 1270 44 1270 9 7 1270 1270 23 18 20 1270 19 9 1270 25 1270 1270 1270 1270 1270 43 1270 46 43 16 28 1270 1270 1270 14 1270 1270 1270 38 1270 1270 1270 1270 1270 44 1270 48 1270 16 32 1270 1270
30 1270 1270 11 82 1270 1270 58 27 1270 1270 1270 103 1270 35 1270 31 1270 1270 1270 0 1270 1270 1270 1270 1270 26 88 47 1270 26 1270 36 1270 27 1270 13 1270 64 40 11 1270 45 1270 60 42 30 1270 1270 8 1270 1270 1270 1270 1270 17 48 1270 47 1270 1270 1270 76 1270 1270 17 3 1270 1270 53 1270 1270 31 1270 47 1270 18 1270 77 1270 1270 1270 1270 1270 1270 1270 1270 24 1270 13 1270 1270 63 1270 64 1270
1270 1270 1270 1270 1270 3 19 12 32 1270 1270 1270 1270 1270 1270 1270 19 1270 1270 15 1270 0 1270 1270 1270 1270 1270 1270 3 4 1270 30 1270 9 1270 1270 1270 1270 1270 1270 1270 1270 8 1270 17 10 1270 1270 1270 1270 1270 1270 6 15 1270 1270 19 33 5 1270 13 16 1270 34 1270 1270 1270 1270 1270 33 1270 1270 1270 2 25 1270 1270 1270 28 1270 1270 1270 1270 1270 1270 1270 1270 1270 1270 1270 1270 1270 16 1270 1270 1270
1270 22 1270 1270 1270 1270 1270 1270 1270 16 29 11 1270 31 1270 31 1270 10 1270 1270 1270 1270 0 42 30 20 1270 32 1270 1270 1270 1270 1270 1270 1270 32 1270 1270 1270 1270 1270 17 1270 1270 1270 1270 1270 30 25 1270 1270 23 1270 1270 55 1270 1270 1270 1270 35 1270 1270 29 39 25 1270 1270 1270 39 1270 41 1270 41 1270 1270 26 1270 25 1270 14 5 30 28 1270 19 11 23 1270 1270 1270 1270 12 1270 1270 30 32
1270 59 34 1270 1270 1270 1270 1270 1270 1270 1270 1270 36 1270 1270 1270 1270 33 15 1270 1270 1270 42 0 12 43 1270 67 1270 1270 1270 35 101 1270 1270 1270 1270 15 1270 1270 1270 37 1270 26 1270 1270 1270 66 1270 1270 33 50 1270 1270 14 1270 1270 1270 1270 1270 1270 1270 69 31 1270 1270 1270 10 1270 1270 1270 13 1270 1270 1270 1270 1270 39 1270 28 45 1270 24 6 25 1270 1270 1270 13 1270 6 39 1270 32 1270 1270
1270 1270 1270 1270 1270 1270 40 1270 1270 1270 1270 40 1270 1270 1270 1270 1270 22 16 1270 1270 1270 30 12 0 34 1270 57 1270 1270 1270 32 1270 1270 1270 1270 1270 14 1270 1270 1270 25 1270 36 1270 1270 1270 1270 36 1270 1270 41 1270 1270 24 1270 1270 1270 1270 1270 1270 1270 1270 25 1270 1270 1270 2 1270 1270 1270 21 1270 1270 42 1270 1270 31 1270 16 33 1270 15 14 15 1270 36 1270 20 1270 12 27 1270 1270 1270 1270
1270 18 1270 1270 1270 1270 1270 1270 1270 20 34 29 1270 1270 1270 1270 1270 17 1270 1270 1270 1270 20 43 34 0 1270 24 1270 1270 1270 1270 77 1270 1270 1270 1270 1270 1270 1270 1270 34 1270 70 1270 1270 1270 23 1270 1270 1270 6 1270 1270 57 1270 1270 1270 1270 1270 1270 1270 29 1270 39 1270 1270 37 1270 1270 1270 55 1270 1270 1270 35 1270 8 1270 23 17 1270 40 47 19 28 43 1270 1270 1270 46 30 1270 1270 1270 1270
5 1270 1270 1270 1270 1270 1270 1270 1270 1270 1270 1270 1270 32 13 1270 1270 1270 1270 1270 26 1270 1270 1270 1270 1270 0 66 1270 1270 17 1270 13 1270 4 25 13 1270 1270 15 15 1270 1270 1270 1270 1270 5 1270 1270 19 1270 1270 1270 1270 1270 17 1270 1270 1270 21 1270 1270 53 1270 1270 9 1270 1270 18 1270 21 1270 30 1270 1270 1270 8 1270 1270 1270 1270 1270 1270 1270 1270 1270 1270 37 1270 29 1270 1270 1270 1270 40 24
65 10 1270 1270 1270 1270 1270 1270 1270 18 21 1270 1270 33 67 1270 1270 36 1270 1270 88 1270 32 67 57 24 66 0 1270 1270 1270 1270 66 1270 1270 1270 1270 1270 1270 51 79 1270 1270 93 1270 1270 61 3 1270 1270 1270 18 1270 1270 81 1270 1270 1270 1270 51 1270 1270 13 1270 1270 73 1270 60 55 1270 1270 79 1270 1270 1270 25 72 31 1270 43 28 1270 1270 71 42 32 1270 1270 1270 1270 69 44 1270 1270 25 47
1270 1270 1270 35 1270 3 21 13 29 1270 1270 1270 1270 1270 1270 1270 17 1270 1270 18 47 3 1270 1270 1270 1270 1270 1270 0 6 1270 1270 1270 12 1270 1270 1270 1270 36 1270 1270 1270 6 1270 18 9 1270 1270 1270 1270 1270 1270 9 1270 1270 1270 19 1270 3 1270 13 18 1270 1270 1270 1270 1270 1270 1270 31 1270 1270 32 2 25 1270 1270 1270 1270 1270 1270 1270 1270 1270 1270 1270 1270 23 1270 1270 1270 1270 18 1270 1270 1270
1270 1270 1270 1270 1270 7 19 9 35 1270 1270 1270 1270 1270 1270 1270 23 1270 1270 12 1270 4 1270 1270 1270 1270 1270 1270 6 0 1270 29 1270 5 1270 1270 1270 1270 36 1270 1270 1270 10 1270 14 14 1270 1270 1270 1270 1270 1270 5 11 1270 1270 21 30 7 1270 15 12 1270 33 1270 1270 1270 1270 1270 33 1270 1270 1270 5 27 1270 1270 1270 24 1270 1270 1270 1270 1270 1270 1270 1270 1270 1270 1270 1270 1270 13 1270 1270 1270
22 1270 1270 26 1270 1270 46 1270 41 1270 1270 34 1270 31 1270 23 28 1270 1270 1270 26 1270 1270 1270 1270 1270 17 1270 1270 1270 0 1270 30 1270 14 13 17 1270 1270 20 20 1270 46 1270 1270 35 16 1270 29 19 1270 1270 1270 1270 1270 10 34 1270 1270 11 1270 1270 1270 53 1270 17 25 1270 7 1270 4 1270 13 1270 30 1270 17 1270 1270 1270 1270 17 1270 1270 1270 1270 29 24 1270 22 1270 1270 1270 1270 39 15
1270 1270 15 1270 21 30 13 34 1270 1270 1270 1270 31 1270 1270 35 42 1270 20 19 1270 30 1270 35 32 1270 1270 1270 1270 29 1270 0 1270 27 1270 1270 1270 20 62 1270 1270 31 1270 37 1270 32 1270 1270 32 1270 32 1270 24 26 1270 1270 24 19 1270 1270 25 28 1270 8 1270 1270 1270 31 1270 1270 1270 29 45 1270 27 1270 1270 1270 23 38 1270 1270 21 30 1270 1270 33 1270 26 1270 29 36 35 20 1270 1270
8 63 1270 44 1270 1270 1270 1270 61 57 46 1270 1270 35 1 1270 1270 72 1270 1270 36 1270 1270 101 1270 77 13 66 1270 1270 30 1270 0 1270 16 34 24 1270 1270 18 25 1270 1270 1270 1270 1270 14 64 1270 30 1270 76 1270 1270 111 30 1270 1270 1270 31 1270 1270 54 1270 39 20 37 1270 28 87 33 1270 1270 1270 1270 43 19 84 1270 1270 63 34 1270 1270 82 52 1270 1270 1270 1270 1270 1270 1270 1270 42 32
1270 1270 34 1270 25 12 19 7 40 1270 1270 1270 50 1270 1270 1270 28 1270 47 8 1270 9 1270 1270 1270 1270 1270 1270 12 5 1270 27 1270 0 1270 1270 1270 1270 36 1270 1270 1270 15 1270 13 19 1270 1270 1270 1270 1270 1270 6 6 1270 1270 24 25 12 1270 18 7 1270 32 1270 1270 1270 1270 1270 35 1270 1270 1270 10 30 1270 1270 1270 19 1270 1270 1270 1270 1270 1270 1270 1270 1270 1270 1270 1270 1270 10 40 1270 1270
8 1270 1270 32 1270 1270 1270 1270 49 1270 1270 40 1270 29 16 36 41 1270 1270 1270 27 1270 1270 1270 1270 1270 4 1270 1270 1270 14 1270 16 1270 0 21 14 1270 1270 12 17 1270 1270 1270 1270 1270 3 1270 1270 20 1270 1270 1270 1270 1270 16 1270 1270 1270 17 1270 1270 1270 1270 1270 11 27 1270 14 1270 17 1270 27 1270 44 1270 10 1270 1270 1270 1270 22 1270 1270 1270 1270 41 35 1270 29 1270 1270 1270 1270 37 20
27 1270 1270 38 1270 1270 44 1270 52 34 1270 21 1270 21 1270 19 35 41 1270 1270 1270 1270 32 1270 1270 1270 25 1270 1270 1270 13 1270 34 1270 21 0 29 1270 1270 19 1270 31 51 1270 1270 39 21 1270 22 32 1270 1270 1270 1270 1270 23 34 1270 1270 4 1270 1270 1270 48 18 1270 1270 1270 7 1270 10 1270 17 1270 28 26 28 1270 1270 42 34 6 45 1270 1270 22 21 33 1270 34 1270 29 1270 1270 28 5
17 1270 1270 20 1270 1270 1270 1270 37 1270 1270 1270 1270 1270 23 38 34 1270 1270 1270 13 1270 1270 1270 1270 1270 13 1270 1270 1270 17 1270 24 1270 14 29 0 1270 1270 26 3 1270 1270 1270 1270 1270 17 1270 1270 6 1270 1270 1270 1270 1270 10 1270 1270 1270 1270 1270 1270 1270 1270 1270 4 14 1270 22 63 21 1270 26 1270 44 1270 5 1270 1270 1270 1270 1270 1270 1270 1270 1270 1270 27 1270 18 1270 1270 1270 1270 1270 1270
1270 1270 22 1270 1270 1270 30 1270 1270 1270 1270 1270 30 1270 1270 42 58 33 3 39 1270 1270 1270 15 14 1270 1270 1270 1270 1270 1270 20 1270 1270 1270 1270 1270 0 1270 1270 1270 28 1270 1270 1270 1270 1270 1270 36 1270 29 1270 43 1270 19 1270 38 34 1270 1270 41 1270 1270 15 1270 1270 1270 12 1270 1270 1270 14 55 1270 37 1270 1270 45 1270 26 1270 1270 13 11 28 1270 36 1270 11 1270 10 32 1270 22 1270 1270
1270 1270 67 54 53 1270 54 29 37 1270 1270 1270 79 1270 97 1270 46 1270 82 43 64 1270 1270 1270 1270 1270 1270 1270 36 36 1270 62 1270 36 1270 1270 1270 1270 0 1270 73 1270 31 91 23 44 1270 1270 1270 68 82 1270 40 37 94 1270 1270 55 33 1270 1270 35 1270 1270 1270 1270 62 1270 1270 12 1270 89 1270 1270 1270 1270 1270 1270 46 1270 1270 1270 1270 1270 1270 1270 1270 50 87 1270 1270 1270 28 72 1270 1270
14 46 1270 1270 1270 1270 1270 1270 1270 40 30 33 1270 18 19 37 1270 1270 1270 1270 40 1270 1270 1270 1270 1270 15 51 1270 1270 20 1270 18 1270 12 19 26 1270 1270 0 29 1270 1270 1270 1270 1270 10 48 1270 1270 1270 58 1270 1270 1270 27 1270 1270 1270 16 1270 1270 38 1270 21 23 1270 1270 15 1270 22 1270 32 1270 1270 26 22 67 1270 1270 1270 17 1270 1270 1270 34 40 1270 1270 1270 1270 1270 1270 1270 26 15
19 1270 1270 19 1270 1270 1270 1270 36 1270 1270 1270 1270 1270 25 1270 35 1270 1270 1270 11 1270 1270 1270 1270 1270 15 79 1270 1270 20 1270 25 1270 17 1270 3 1270 73 29 0 1270 51 1270 67 1270 19 1270 1270 5 1270 1270 1270 1270 1270 12 1270 1270 1270 1270 1270 1270 66 1270 1270 6 12 1270 1270 62 1270 1270 29 1270 1270 1270 7 1270 1270 1270 1270 1270 1270 1270 1270 1270 1270 28 1270 18 1270 1270 1270 1270 54 1270
1270 1270 43 1270 1270 1270 29 1270 1270 1270 1270 20 1270 1270 1270 20 43 18 31 43 1270 1270 17 37 25 34 1270 1270 1270 1270 1270 31 1270 1270 1270 31 1270 28 1270 1270 1270 0 1270 1270 1270 1270 1270 1270 12 1270 1270 1270 42 1270 1270 1270 27 50 1270 34 33 1270 1270 23 33 1270 1270 27 37 1270 36 1270 32 1270 22 1270 1270 36 1270 15 21 31 15 1270 23 21 12 1270 39 1270 34 5 1270 47 1270 33
1270 1270 1270 34 40 9 27 13 25 1270 1270 1270 64 1270 73 37 18 1270 1270 22 45 8 1270 1270 1270 1270 1270 1270 6 10 46 1270 1270 15 1270 51 1270 1270 31 1270 51 1270 0 1270 16 14 1270 1270 42 46 1270 1270 14 20 1270 43 25 1270 3 1270 19 21 1270 42 1270 1270 42 1270 1270 25 44 1270 35 8 30 1270 1270 1270 34 1270 1270 1270 1270 1270 1270 1270 1270 23 1270 34 1270 1270 18 1270 1270 1270
1270 1270 25 1270 38 1270 1270 1270 1270 1270 1270 1270 13 1270 1270 1270 1270 58 25 51 1270 1270 1270 26 36 70 1270 93 1270 1270 1270 37 1270 1270 1270 1270 1270 1270 91 1270 1270 1270 1270 0 68 1270 1270 1270 1270 1270 10 76 1270 1270 13 1270 1270 36 1270 1270 1270 1270 1270 1270 1270 1270 1270 34 1270 93 1270 15 1270 1270 1270 1270 1270 65 44 1270 1270 1270 1270 23 51 1270 1270 1270 17 1270 25 1270 63 19 1270 1270
1270 1270 1270 49 31 20 1270 6 37 1270 1270 1270 58 1270 89 1270 33 1270 1270 20 60 17 1270 1270 1270 1270 1270 1270 18 14 1270 1270 1270 13 1270 1270 1270 1270 23 1270 67 1270 16 68 0 27 1270 1270 1270 62 60 1270 18 14 1270 1270 35 33 16 1270 29 12 1270 1270 1270 1270 57 1270 1270 25 1270 1270 50 18 41 1270 1270 1270 25 1270 1270 1270 1270 1270 1270 1270 1270 39 1270 1270 1270 1270 5 50 1270 1270
1270 1270 1270 31 1270 7 19 22 30 1270 1270 1270 1270 1270 1270 24 11 1270 1270 22 42 10 1270 1270 1270 1270 1270 1270 9 14 35 32 1270 19 1270 39 1270 1270 44 1270 1270 1270 14 1270 27 0 1270 1270 28 1270 1270 1270 13 1270 1270 35 12 1270 12 1270 7 26 1270 33 1270 1270 1270 1270 1270 38 33 1270 23 9 17 1270 1270 1270 1270 1270 1270 1270 1270 1270 1270 1270 1270 18 1270 29 1270 1270 27 1270 1270 1270
6 1270 1270 1270 1270 1270 1270 1270 1270 1270 40 40 1270 27 14 38 1270 1270 1270 1270 30 1270 1270 1270 1270 1270 5 61 1270 1270 16 1270 14 1270 3 21 17 1270 1270 10 19 1270 1270 1270 1270 1270 0 1270 1270 23 1270 1270 1270 1270 1270 19 1270 1270 1270 18 1270 1270 48 1270 29 14 1270 1270 15 1270 19 1270 29 1270 1270 36 13 1270 1270 1270 1270 22 1270 1270 1270 1270 42 38 1270 32 1270 1270 1270 1270 35 19
62 8 1270 1270 1270 1270 1270 1270 1270 15 18 1270 1270 30 65 1270 1270 34 1270 1270 1270 1270 30 66 1270 23 1270 3 1270 1270 1270 1270 64 1270 1270 1270 1270 1270 1270 48 1270 1270 1270 1270 1270 1270 1270 0 1270 1270 1270 18 1270 1270 80 1270 1270 1270 1270 1270 1270 1270 10 1270 1270 1270 1270 1270 1270 1270 1270 1270 1270 1270 1270 22 1270 31 1270 1270 25 1270 1270 1270 41 29 1270 1270 1270 1270 1270 1270 1270 1270 22 1270
1270 1270 46 1270 1270 1270 25 1270 53 1270 1270 22 1270 1270 1270 8 32 29 38 39 1270 1270 25 1270 36 1270 1270 1270 1270 1270 29 32 1270 1270 1270 22 1270 36 1270 1270 1270 12 42 1270 1270 28 1270 1270 0 1270 1270 1270 35 1270 1270 36 18 49 1270 26 24 1270 1270 26 31 1270 1270 38 28 1270 25 1270 20 1270 12 1270 1270 1270 1270 27 1270 25 24 1270 36 23 2 34 47 1270 43 14 1270 50 1270 26
23 1270 1270 14 1270 1270 1270 1270 31 1270 1270 1270 1270 1270 29 39 30 1270 1270 1270 8 1270 1270 1270 1270 1270 19 1270 1270 1270 19 1270 30 1270 20 32 6 1270 68 1270 5 1270 46 1270 62 1270 23 1270 1270 0 1270 1270 1270 1270 1270 10 1270 1270 1270 1270 1270 1270 1270 1270 1270 10 8 1270 25 57 23 1270 26 1270 43 1270 11 1270 1270 1270 1270 1270 1270 1270 1270 1270 1270 23 1270 13 1270 1270 1270 1270 1270 1270
1270 1270 18 1270 29 1270 1270 1270 1270 1270 1270 1270 4 1270 1270 1270 1270 1270 26 44 1270 1270 1270 33 1270 1270 1270 1270 1270 1270 1270 32 1270 1270 1270 1270 1270 29 82 1270 1270 1270 1270 10 60 1270 1270 1270 1270 1270 0 1270 1270 1270 20 1270 1270 27 1270 1270 1270 1270 1270 36 1270 1270 1270 1270 1270 85 1270 20 1270 1270 1270 1270 1270 71 35 1270 1270 1270 1270 28 1270 1270 1270 1270 21 1270 29 1270 55 12 1270 1270
72 14 1270 1270 1270 1270 1270 1270 1270 19 31 30 1270 1270 77 1270 1270 22 1270 1270 1270 1270 23 50 41 6 1270 18 1270 1270 1270 1270 76 1270 1270 1270 1270 1270 1270 58 1270 1270 1270 76 1270 1270 1270 18 1270 1270 1270 0 1270 1270 64 1270 1270 1270 1270 1270 1270 1270 25 1270 38 1270 1270 43 1270 1270 1270 62 1270 1270 1270 33 1270 13 1270 29 19 1270 1270 54 26 29 1270 1270 1270 1270 52 34 1270 1270 35 1270
1270 1270 34 1270 28 8 14 13 1270 1270 1270 1270 51 1270 1270 33 24 1270 44 9 1270 6 1270 1270 1270 1270 1270 1270 9 5 1270 24 1270 6 1270 1270 1270 43 40 1270 1270 42 14 1270 18 13 1270 1270 35 1270 1270 1270 0 11 1270 1270 17 28 11 1270 12 13 1270 29 1270 1270 1270 1270 1270 1270 1270 1270 35 7 23 1270 1270 1270 23 1270 1270 1270 40 1270 1270 1270 1270 1270 1270 1270 1270 1270 16 40 1270 1270
1270 1270 31 1270 20 17 21 9 1270 1270 1270 1270 45 1270 1270 1270 1270 1270 45 7 1270 15 1270 1270 1270 1270 1270 1270 1270 11 1270 26 1270 6 1270 1270 1270 1270 37 1270 1270 1270 20 1270 14 1270 1270 1270 1270 1270 1270 1270 11 0 1270 1270 28 21 18 1270 23 2 1270 32 1270 1270 1270 1270 1270 38 1270 1270 1270 1270 34 1270 1270 1270 14 1270 1270 1270 1270 1270 1270 1270 1270 1270 1270 1270 1270 1270 9 36 1270 1270
1270 72 27 1270 42 1270 1270 1270 1270 1270 1270 1270 23 1270 1270 1270 1270 46 17 1270 1270 1270 55 14 24 57 1270 81 1270 1270 1270 1270 111 1270 1270 1270 1270 19 94 1270 1270 1270 1270 13 1270 1270 1270 80 1270 1270 20 64 1270 1270 0 1270 1270 40 1270 1270 1270 1270 82 1270 1270 1270 1270 22 1270 1270 1270 6 1270 1270 1270 1270 1270 53 1270 40 58 1270 31 11 39 1270 1270 1270 8 1270 13 49 1270 23 1270 1270
22 1270 1270 17 1270 1270 49 1270 34 1270 1270 44 1270 1270 30 29 26 1270 1270 1270 17 1270 1270 1270 1270 1270 17 1270 1270 1270 10 1270 30 1270 16 23 10 1270 1270 27 12 1270 43 1270 1270 35 19 1270 36 10 1270 1270 1270 1270 1270 0 37 1270 1270 21 1270 1270 1270 58 1270 12 15 1270 17 58 13 1270 17 1270 35 1270 12 1270 1270 1270 1270 27 1270 1270 1270 1270 37 20 1270 13 1270 1270 1270 1270 1270 25
1270 1270 39 39 1270 16 12 30 41 1270 1270 1270 1270 1270 1270 16 20 1270 40 23 48 19 1270 1270 1270 1270 1270 1270 19 21 34 24 1270 24 1270 34 1270 38 1270 1270 1270 27 25 1270 35 12 1270 1270 18 1270 1270 1270 17 28 1270 37 0 37 22 1270 6 1270 1270 23 1270 1270 1270 1270 1270 50 31 1270 21 18 6 1270 1270 1270 36 1270 1270 1270 30 1270 1270 1270 20 25 1270 36 1270 1270 1270 1270 1270 1270
1270 1270 13 1270 3 35 26 30 1270 1270 1270 1270 25 1270 1270 1270 1270 1270 32 18 1270 33 1270 1270 1270 1270 1270 1270 1270 30 1270 19 1270 25 1270 1270 1270 34 55 1270 1270 50 1270 36 33 1270 1270 1270 49 1270 27 1270 28 21 40 1270 37 0 1270 1270 35 21 1270 27 1270 1270 1270 1270 1270 58 1270 36 1270 1270 42 1270 1270 1270 8 1270 1270 1270 39 41 1270 1270 1270 1270 35 1270 41 1270 28 17 1270 1270
1270 1270 1270 35 1270 6 24 12 28 1270 1270 1270 1270 1270 1270 1270 18 1270 1270 20 47 5 1270 1270 1270 1270 1270 1270 3 7 1270 1270 1270 12 1270 1270 1270 1270 33 1270 1270 1270 3 1270 16 12 1270 1270 1270 1270 1270 1270 11 18 1270 1270 22 1270 0 1270 16 19 1270 1270 1270 1270 1270 1270 1270 28 1270 1270 34 5 28 1270 1270 1270 32 1270 1270 1270 1270 1270 1270 1270 1270 24 1270 1270 1270 1270 17 1270 1270 1270
24 1270 1270 1270 1270 1270 1270 1270 1270 1270 32 24 1270 20 31 22 36 1270 1270 1270 1270 1270 35 1270 1270 1270 21 51 1270 1270 11 1270 31 1270 17 4 1270 1270 1270 16 1270 34 1270 1270 1270 1270 18 1270 26 1270 1270 1270 1270 1270 1270 21 1270 1270 1270 0 1270 1270 39 1270 18 25 1270 1270 4 1270 10 1270 18 1270 31 26 25 1270 1270 1270 1270 6 1270 1270 1270 25 25 34 1270 1270 1270 32 1270 1270 28 4
1270 1270 39 1270 1270 10 12 24 37 1270 1270 1270 1270 1270 1270 21 17 1270 43 19 1270 13 1270 1270 1270 1270 1270 1270 13 15 1270 25 1270 18 1270 1270 1270 41 1270 1270 1270 33 19 1270 29 7 1270 1270 24 1270 1270 1270 12 23 1270 1270 6 35 16 1270 0 25 1270 26 1270 1270 1270 1270 1270 44 1270 1270 24 12 12 1270 1270 1270 33 1270 1270 1270 35 1270 1270 1270 1270 24 1270 1270 1270 1270 1270 1270 1270 1270
1270 1270 32 1270 20 19 23 9 45 1270 1270 1270 46 1270 1270 1270 35 1270 1270 9 1270 16 1270 1270 1270 1270 1270 1270 18 12 1270 28 1270 7 1270 1270 1270 1270 35 1270 1270 1270 21 1270 12 26 1270 1270 1270 1270 1270 1270 13 2 1270 1270 1270 21 19 1270 25 0 1270 1270 1270 1270 1270 1270 1270 37 1270 1270 1270 1270 1270 1270 1270 1270 14 1270 1270 1270 1270 1270 1270 1270 1270 1270 1270 1270 1270 1270 7 38 1270 1270
52 12 1270 1270 1270 1270 1270 1270 1270 13 8 25 1270 21 55 1270 1270 36 1270 1270 76 1270 29 69 1270 29 53 13 1270 1270 1270 1270 54 1270 1270 1270 1270 1270 1270 38 66 1270 1270 1270 1270 1270 48 10 1270 1270 1270 25 1270 1270 82 1270 1270 1270 1270 39 1270 1270 0 1270 21 61 1270 1270 43 1270 1270 1270 1270 1270 1270 13 60 37 1270 1270 25 33 1270 1270 44 24 1270 1270 1270 1270 1270 1270 1270 1270 13 35
1270 1270 21 1270 29 33 15 1270 63 1270 1270 43 36 1270 1270 30 43 36 17 25 1270 34 39 31 25 1270 1270 1270 1270 33 53 8 1270 32 1270 48 1270 15 1270 1270 1270 23 42 1270 1270 33 1270 1270 26 1270 36 1270 29 32 1270 58 23 27 1270 1270 26 1270 1270 0 1270 1270 1270 25 1270 1270 49 27 42 1270 24 1270 1270 1270 31 30 1270 1270 13 26 35 1270 27 48 24 1270 25 28 1270 25 1270 1270
35 26 1270 1270 1270 1270 1270 1270 1270 19 14 15 1270 6 1270 32 1270 35 1270 1270 1270 1270 25 1270 1270 39 1270 1270 1270 1270 1270 1270 39 1270 1270 18 1270 1270 1270 21 1270 33 1270 1270 1270 1270 29 1270 31 1270 1270 38 1270 1270 1270 1270 1270 1270 1270 18 1270 1270 21 1270 0 1270 1270 1270 22 1270 28 1270 34 1270 1270 8 1270 1270 1270 39 24 12 1270 1270 1270 14 30 1270 1270 1270 1270 29 1270 1270 11 14
13 1270 1270 24 1270 1270 1270 1270 41 1270 1270 1270 1270 40 19 1270 1270 1270 1270 1270 17 1270 1270 1270 1270 1270 9 73 1270 1270 17 1270 20 1270 11 1270 4 1270 1270 23 6 1270 1270 1270 1270 1270 14 1270 1270 10 1270 1270 1270 1270 1270 12 1270 1270 1270 25 1270 1270 61 1270 1270 0 17 1270 21 67 1270 1270 28 1270 1270 1270 1 1270 1270 1270 1270 1270 1270 1270 1270 1270 1270 31 1270 22 1270 1270 1270 1270 48 29
30 1270 1270 9 1270 1270 1270 1270 25 1270 1270 1270 1270 1270 36 1270 28 1270 1270 1270 3 1270 1270 1270 1270 1270 1270 1270 1270 1270 25 1270 37 1270 27 1270 14 1270 62 1270 12 1270 42 1270 57 1270 1270 1270 1270 8 1270 1270 1270 1270 1270 15 1270 1270 1270 1270 1270 1270 1270 1270 1270 17 0 1270 1270 51 1270 1270 28 1270 1270 1270 18 1270 1270 1270 1270 1270 1270 1270 1270 1270 1270 21 1270 9 1270 1270 1270 1270 1270 1270
1270 1270 34 1270 1270 1270 40 1270 1270 1270 1270 1270 1270 1270 1270 1270 1270 24 14 1270 1270 1270 1270 10 2 37 1270 60 1270 1270 1270 31 1270 1270 1270 1270 1270 12 1270 1270 1270 27 1270 34 1270 1270 1270 1270 38 1270 1270 43 1270 1270 22 1270 1270 1270 1270 1270 1270 1270 1270 25 1270 1270 1270 0 1270 1270 1270 19 1270 1270 43 1270 1270 33 1270 19 1270 1270 15 11 17 1270 38 1270 17 1270 9 29 1270 34 1270 1270
21 1270 1270 1270 1270 1270 1270 1270 1270 1270 36 28 1270 24 29 23 34 1270 1270 1270 1270 1270 39 1270 1270 1270 18 55 1270 1270 7 1270 28 1270 14 7 22 1270 1270 15 1270 37 1270 1270 1270 1270 15 1270 28 25 1270 1270 1270 1270 1270 17 1270 1270 1270 4 1270 1270 43 1270 22 21 1270 1270 0 1270 7 1270 17 1270 32 30 20 1270 1270 1270 1270 11 1270 1270 1270 29 27 31 1270 29 1270 36 1270 1270 32 8
80 1270 1270 43 56 34 1270 28 26 1270 1270 1270 82 1270 86 1270 38 1270 1270 43 53 33 1270 1270 1270 1270 1270 1270 31 33 1270 1270 87 35 1270 1270 63 1270 12 1270 62 1270 25 93 25 38 1270 1270 1270 57 85 1270 1270 38 1270 58 50 58 28 1270 44 37 1270 1270 1270 67 51 1270 1270 0 1270 1270 56 33 55 1270 1270 1270 50 1270 1270 1270 1270 1270 1270 1270 1270 40 1270 46 1270 1270 30 74 1270 1270
25 1270 1270 28 1270 1270 43 1270 42 1270 1270 31 1270 30 1270 19 27 1270 1270 1270 1270 1270 41 1270 1270 1270 21 1270 1270 1270 4 1270 33 1270 17 10 21 1270 1270 22 1270 36 44 1270 1270 33 19 1270 25 23 1270 1270 1270 1270 1270 13 31 1270 1270 10 1270 1270 1270 49 28 1270 1270 1270 7 1270 0 1270 10 1270 27 1270 21 1270 1270 1270 1270 15 1270 1270 1270 32 25 24 1270 23 1270 36 1270 1270 38 14
1270 1270 23 1270 38 1270 1270 1270 1270 1270 1270 1270 22 1270 1270 1270 1270 43 11 46 1270 1270 1270 13 21 55 1270 79 1270 1270 1270 29 1270 1270 1270 1270 1270 14 89 1270 1270 1270 1270 15 1270 1270 1270 1270 1270 1270 20 62 1270 1270 6 1270 1270 36 1270 1270 1270 1270 1270 27 1270 1270 1270 19 1270 1270 1270 0 1270 1270 1270 1270 1270 51 44 1270 1270 1270 1270 8 36 1270 1270 1270 3 1270 10 1270 1270 20 1270 1270
34 1270 1270 26 1270 30 33 45 37 1270 1270 33 1270 38 1270 13 18 1270 57 43 31 1270 41 1270 1270 1270 30 1270 32 1270 13 45 1270 1270 27 17 26 55 1270 32 29 32 35 1270 50 23 29 1270 20 26 1270 1270 35 1270 1270 17 21 1270 34 18 24 1270 1270 42 34 28 28 1270 17 56 10 1270 0 1270 18 1270 28 1270 1270 1270 1270 23 43 1270 1270 34 21 17 1270 21 1270 33 1270 1270 1270 21
1270 1270 1270 1270 1270 2 19 13 31 1270 1270 1270 1270 1270 1270 1270 18 1270 1270 16 1270 2 1270 1270 1270 1270 1270 1270 2 5 1270 1270 1270 10 1270 1270 1270 1270 1270 1270 1270 1270 8 1270 18 9 1270 1270 1270 1270 1270 1270 7 1270 1270 1270 18 1270 5 1270 12 1270 1270 1270 1270 1270 1270 1270 1270 33 1270 1270 1270 0 1270 1270 1270 1270 1270 1270 1270 1270 1270 1270 1270 1270 1270 1270 1270 1270 1270 1270 1270 1270 1270 1270
1270 1270 41 39 1270 22 16 36 44 1270 1270 33 1270 1270 1270 10 22 1270 39 28 47 25 1270 1270 42 1270 1270 1270 25 27 30 27 1270 30 44 28 44 37 1270 1270 1270 22 30 1270 41 17 1270 1270 12 43 1270 1270 23 34 1270 35 6 42 28 31 12 1270 1270 24 1270 1270 1270 43 32 55 27 1270 18 1270 0 1270 46 1270 41 36 1270 33 28 1270 1270 1270 14 26 48 36 46 25 1270 47 1270 33
40 20 1270 1270 1270 1270 1270 1270 1270 14 6 18 1270 9 44 1270 1270 35 1270 1270 1270 1270 26 1270 1270 35 1270 25 1270 1270 1270 1270 43 1270 1270 26 1270 1270 1270 26 1270 1270 1270 1270 1270 1270 36 22 1270 1270 1270 33 1270 1270 1270 1270 1270 1270 1270 26 1270 1270 13 1270 8 1270 1270 1270 30 1270 1270 1270 1270 1270 1270 0 1270 1270 1270 1270 23 20 1270 1270 1270 17 36 1270 1270 1270 1270 33 1270 1270 4 22
12 1270 1270 25 1270 1270 1270 1270 42 1270 1270 1270 1270 39 19 39 37 1270 1270 1270 18 1270 1270 1270 1270 1270 8 72 1270 1270 17 1270 19 1270 10 28 5 1270 1270 22 7 1270 1270 1270 1270 1270 13 1270 1270 11 1270 1270 1270 1270 1270 12 1270 1270 1270 25 1270 1270 60 1270 1270 1 18 1270 20 1270 21 1270 28 1270 46 1270 0 1270 1270 1270 1270 1270 1270 1270 1270 1270 1270 31 1270 22 1270 1270 1270 1270 48 28
80 25 1270 1270 1270 1270 1270 1270 1270 28 42 35 73 1270 85 1270 1270 19 47 1270 1270 1270 25 39 31 8 1270 31 1270 1270 1270 1270 84 1270 1270 1270 1270 45 1270 67 1270 36 1270 65 1270 1270 1270 31 1270 1270 71 13 1270 1270 53 1270 1270 1270 1270 1270 1270 1270 37 1270 1270 1270 1270 33 1270 1270 1270 51 1270 1270 1270 1270 1270 0 1270 23 23 1270 39 43 17 34 46 1270 50 1270 41 33 1270 67 45 1270
1270 1270 21 1270 6 30 26 23 59 1270 1270 1270 33 1270 1270 1270 1270 1270 39 14 77 28 1270 1270 1270 1270 1270 1270 1270 24 1270 23 1270 19 1270 1270 1270 1270 46 1270 1270 1270 34 44 25 1270 1270 1270 1270 1270 35 1270 23 14 1270 1270 36 8 32 1270 33 14 1270 31 1270 1270 1270 1270 1270 50 1270 44 1270 1270 41 1270 1270 1270 0 1270 1270 1270 1270 1270 1270 1270 1270 1270 42 1270 1270 1270 20 26 1270 1270
1270 33 1270 1270 1270 1270 40 1270 1270 29 1270 24 1270 1270 1270 34 1270 7 29 1270 1270 1270 14 28 16 23 1270 43 1270 1270 1270 38 1270 1270 1270 42 1270 26 1270 1270 1270 15 1270 1270 1270 1270 1270 1270 27 1270 1270 29 1270 1270 40 1270 1270 1270 1270 1270 1270 1270 1270 30 39 1270 1270 19 1270 1270 1270 1270 1270 1270 36 1270 1270 23 1270 0 17 41 17 30 9 24 26 1270 1270 1270 27 13 1270 1270 1270 1270
1270 17 1270 1270 1270 1270 1270 1270 1270 12 25 12 1270 30 1270 1270 1270 12 1270 1270 1270 1270 5 45 33 17 1270 28 1270 1270 1270 1270 63 1270 1270 34 1270 1270 1270 1270 1270 21 1270 1270 1270 1270 1270 25 1270 1270 1270 19 1270 1270 58 1270 1270 1270 1270 1270 1270 1270 25 1270 24 1270 1270 1270 1270 1270 1270 1270 1270 1270 1270 23 1270 23 1270 17 0 31 32 1270 21 12 27 1270 1270 1270 1270 16 1270 1270 27 1270
28 1270 1270 1270 1270 1270 1270 1270 1270 29 26 19 1270 15 1270 23 41 39 1270 1270 1270 1270 30 1270 1270 1270 1270 1270 1270 1270 17 1270 34 1270 22 6 1270 1270 1270 17 1270 31 1270 1270 1270 1270 22 1270 25 1270 1270 1270 1270 1270 1270 27 1270 1270 1270 6 1270 1270 33 1270 12 1270 1270 1270 11 1270 15 1270 23 1270 33 20 1270 1270 1270 41 31 0 1270 1270 1270 19 24 39 1270 1270 1270 29 1270 1270 23 2
1270 1270 30 1270 1270 1270 26 1270 1270 1270 1270 34 1270 1270 1270 31 49 24 15 38 1270 1270 28 24 15 40 1270 1270 1270 1270 1270 21 1270 1270 1270 45 1270 13 1270 1270 1270 15 1270 1270 1270 1270 1270 1270 24 1270 1270 1270 40 1270 31 1270 30 39 1270 1270 35 1270 1270 13 1270 1270 1270 15 1270 1270 1270 1270 43 1270 28 1270 1270 39 1270 17 32 1270 0 22 22 1270 24 1270 23 1270 19 19 1270 32 1270 1270
1270 1270 28 1270 1270 1270 1270 1270 1270 1270 1270 1270 30 1270 1270 1270 1270 35 10 1270 1270 1270 1270 6 14 47 1270 71 1270 1270 1270 30 1270 1270 1270 1270 1270 11 1270 1270 1270 1270 1270 23 1270 1270 1270 1270 1270 1270 28 54 1270 1270 11 1270 1270 41 1270 1270 1270 1270 1270 26 1270 1270 1270 11 1270 1270 1270 8 1270 1270 1270 1270 1270 43 1270 30 1270 1270 22 0 28 1270 1270 1270 7 1270 2 1270 1270 26 1270 1270
1270 34 1270 1270 1270 1270 1270 1270 1270 32 1270 31 1270 1270 1270 1270 1270 10 30 1270 1270 1270 19 25 15 19 1270 42 1270 1270 1270 1270 82 1270 1270 1270 1270 28 1270 1270 1270 23 1270 51 1270 1270 1270 41 36 1270 1270 26 1270 1270 39 1270 1270 1270 1270 1270 1270 1270 44 35 1270 1270 1270 17 1270 1270 1270 36 1270 1270 1270 1270 1270 17 1270 9 21 1270 22 28 0 31 35 1270 34 1270 26 22 1270 1270 1270 1270
1270 22 1270 1270 1270 1270 1270 1270 1270 14 21 1 1270 20 1270 27 1270 21 1270 1270 1270 1270 11 1270 1270 28 1270 32 1270 1270 1270 1270 52 1270 1270 22 1270 1270 1270 34 1270 21 1270 1270 1270 1270 1270 29 23 1270 1270 29 1270 1270 1270 1270 1270 1270 1270 25 1270 1270 24 1270 14 1270 1270 1270 29 1270 32 1270 34 1270 1270 17 1270 34 1270 24 12 19 1270 1270 31 0 21 1270 1270 1270 1270 16 1270 1270 21 21
1270 1270 1270 1270 1270 1270 27 1270 1270 35 1270 20 1270 36 1270 9 33 28 39 1270 1270 1270 23 1270 36 43 1270 1270 1270 1270 29 33 1270 1270 41 21 1270 36 1270 40 1270 12 1270 1270 1270 1270 42 1270 2 1270 1270 1270 1270 1270 1270 37 20 1270 1270 25 1270 1270 1270 27 30 1270 1270 38 27 1270 25 1270 21 1270 14 36 1270 46 1270 26 27 24 24 1270 35 21 0 35 1270 1270 1270 13 1270 1270 1270 25
42 1270 1270 14 1270 23 36 36 20 1270 1270 50 1270 1270 50 27 7 1270 1270 1270 24 1270 1270 1270 1270 1270 37 1270 23 1270 24 1270 1270 1270 35 33 27 1270 50 1270 28 1270 23 1270 39 18 38 1270 34 23 1270 1270 1270 1270 1270 20 25 1270 24 34 24 1270 1270 48 1270 31 21 1270 31 40 24 1270 17 1270 26 1270 31 1270 1270 1270 1270 39 1270 1270 1270 1270 35 0 1270 11 1270 1270 1270 1270 1270 37
1270 1270 22 1270 37 1270 39 1270 1270 1270 1270 1270 23 1270 1270 1270 1270 1270 8 44 1270 1270 1270 13 20 1270 1270 1270 1270 1270 1270 26 1270 1270 1270 1270 1270 11 87 1270 1270 39 1270 17 1270 1270 1270 1270 47 1270 21 1270 1270 1270 8 1270 1270 35 1270 1270 1270 1270 1270 24 1270 1270 1270 17 1270 1270 1270 3 1270 1270 48 1270 1270 50 42 1270 1270 1270 23 7 34 1270 1270 1270 0 1270 8 1270 1270 19 1270 1270
34 1270 1270 5 1270 1270 1270 1270 21 1270 1270 1270 1270 1270 41 34 18 1270 1270 1270 13 1270 1270 1270 1270 1270 29 1270 1270 1270 22 1270 1270 1270 29 34 18 1270 1270 1270 18 1270 34 1270 1270 29 32 1270 1270 13 1270 1270 1270 1270 1270 13 36 1270 1270 1270 1270 1270 1270 1270 1270 22 9 1270 29 46 23 1270 21 1270 36 1270 22 1270 1270 1270 1270 1270 1270 1270 1270 1270 1270 11 1270 0 1270 1270 1270 1270 1270 1270
1270 1270 28 1270 1270 1270 40 1270 1270 1270 1270 1270 32 1270 1270 1270 1270 33 9 48 1270 1270 1270 6 12 46 1270 69 1270 1270 1270 29 1270 1270 1270 1270 1270 10 1270 1270 1270 34 1270 25 1270 1270 1270 1270 43 1270 29 52 1270 1270 13 1270 1270 41 1270 1270 1270 1270 1270 25 1270 1270 1270 9 1270 1270 1270 10 1270 1270 46 1270 1270 41 1270 27 1270 1270 19 2 26 1270 1270 1270 8 1270 0 1270 1270 27 1270 1270
1270 33 1270 1270 1270 1270 34 1270 1270 26 1270 15 1270 35 1270 22 1270 15 35 1270 1270 1270 12 39 27 30 1270 44 1270 1270 1270 36 1270 1270 1270 29 1270 32 1270 1270 1270 5 1270 1270 1270 1270 1270 1270 14 1270 1270 34 1270 1270 49 1270 1270 1270 1270 32 1270 1270 1270 28 29 1270 1270 29 36 1270 36 1270 33 1270 25 33 1270 33 1270 13 16 29 19 1270 22 16 13 1270 1270 1270 1270 0 1270 1270 1270 31
1270 1270 39 1270 26 1270 29 5 41 1270 1270 1270 53 1270 1270 1270 35 1270 1270 16 63 16 1270 1270 1270 1270 1270 1270 18 13 1270 35 1270 10 1270 1270 1270 1270 28 1270 1270 1270 18 63 5 27 1270 1270 1270 1270 55 1270 16 9 1270 1270 1270 28 17 1270 1270 7 1270 1270 1270 1270 1270 1270 1270 30 1270 1270 1270 1270 1270 1270 1270 1270 20 1270 1270 1270 1270 1270 1270 1270 1270 1270 1270 1270 1270 1270 0 45 1270 1270
1270 1270 6 1270 20 1270 33 1270 1270 1270 1270 1270 11 1270 1270 1270 1270 1270 20 32 1270 1270 1270 32 1270 1270 1270 1270 1270 1270 1270 20 1270 40 1270 1270 1270 22 72 1270 1270 47 1270 19 50 1270 1270 1270 50 1270 12 1270 40 36 23 1270 1270 17 1270 1270 1270 38 1270 25 1270 1270 1270 34 1270 74 1270 20 1270 1270 47 1270 1270 67 26 1270 1270 1270 32 26 1270 1270 1270 1270 19 1270 27 1270 45 0 1270 1270
40 22 1270 1270 1270 1270 1270 1270 1270 17 5 22 1270 8 43 1270 1270 1270 1270 1270 64 1270 30 1270 1270 1270 40 25 1270 1270 39 1270 42 1270 37 28 1270 1270 1270 26 54 1270 1270 1270 1270 1270 35 22 1270 1270 1270 35 1270 1270 1270 1270 1270 1270 1270 28 1270 1270 13 1270 11 48 1270 1270 32 1270 38 1270 1270 1270 1270 4 48 45 1270 1270 27 23 1270 1270 1270 21 1270 1270 1270 1270 1270 1270 1270 1270 0 24
26 1270 1270 1270 1270 1270 1270 1270 1270 31 28 21 1270 16 33 23 40 1270 1270 1270 1270 1270 32 1270 1270 1270 24 47 1270 1270 15 1270 32 1270 20 5 1270 1270 1270 15 1270 33 1270 1270 1270 1270 19 1270 26 1270 1270 1270 1270 1270 1270 25 1270 1270 1270 4 1270 1270 35 1270 14 29 1270 1270 8 1270 14 1270 21 1270 33 22 28 1270 1270 1270 1270 2 1270 1270 1270 21 25 37 1270 1270 1270 31 1270 1270 24 0
EOF
